1 3 100 135018.11
1 3 200 134978.11
1 3 300 135115.60
2 3 100 136460.92
2 3 200 137371.20
2 3 300 136699.12
3 3 100 131512.85
3 3 200 132912.77
3 3 300 133248.00
4 3 100 127360.02
4 3 200 126273.33
4 3 300 128190.93
5 3 100 120819.80
5 3 200 121543.44
5 3 300 120987.18
